language Essence 1.3

$ bivincular mesh
letting length be 5

$ mesh_containment = permutation + mesh pieces + bivincular indeces
$letting mesh_avoidance be {(sequence(1,3,2), relation((0,0),(1,0),(2,0),(3,0),(1,1),(1,2),(1,3),(0,2),(2,2),(3,2),(2,3))}

letting mesh_containment be {(sequence(1,3,2), relation((1, 0), (1, 1), (1, 2), (1, 3), (1,4), (1,5), (1,6), (1,7), (1,8), (1,9), (2,3)))}

